NAME : XML100_1323_04
DIMENSION : 101
NB_CLUSTERS : 13
CLUSTERING_ALG : DBSCAN
CLUSTERING_PARAMS : eps(90), minSamples(3)
CLUSTERS
1 0
2 2 3 6 14 19 20 21 26 32 34 37 38 40 47 48 61 67 80 87 88 89 92
3 4 5 8 22 35 45 46 54 58 66 81 95 99
4 7 9 11 12 13 24 28 30 36 44 56 82 98
5 10 15 27 31 39 41 51 52 55 57 62 64 68 70 77 84 86 96
6 17 33 43 79 93
7 18 53 63 75 76 85 91 97
8 23 25 69 72 74 100
9 59 60 83 94
10 1 49 90
11 16 42 65
12 73 78
13 29 50 71
EOF